decision_x1=[0,2];
decision_x2=[0,2];
decision_x3=[0,2];
decision_x4=[0,2];
decision_x5=[0,2];
decision_x6=[0,2];
decision_x7=[0,2];
decision_x8=[0,2];
decision_x9=[0,2];
decision_x10=[0,2];
decision_x11=[0,2];
decision_x12=[0,2];
random_y1=[0,2];
random_y2=[0,2];
random_y3=[0,2];
random_y4=[0,2];
random_y5=[0,2];
random_y6=[0,2];
random_y7=[0,2];
random_y8=[0,2];
random_y9=[0,2];
random_y10=[0,2];
random_y11=[0,2];
random_y12=[0,2];
constraint_x3_x1=[
0,0,5|
0,1,5.6|
0,2,6.7|
1,0,4.8|
1,1,7.9|
1,2,9.3|
2,0,5.9|
2,1,9.9|
2,2,8.7|
];
constraint_x4_x1=[
0,0,2.8|
0,1,3|
0,2,2.3|
1,0,0.84|
1,1,2.9|
1,2,2.8|
2,0,5.4|
2,1,5.7|
2,2,9.2|
];
constraint_x5_x1=[
0,0,1.5|
0,1,3.1|
0,2,4.2|
1,0,0.14|
1,1,3.1|
1,2,2.8|
2,0,2|
2,1,0.38|
2,2,5.5|
];
constraint_x5_x2=[
0,0,2.5|
0,1,1.5|
0,2,8.2|
1,0,2.5|
1,1,9.9|
1,2,9.6|
2,0,1.2|
2,1,2.2|
2,2,2|
];
constraint_x5_x3=[
0,0,9.2|
0,1,6.1|
0,2,1.5|
1,0,8.7|
1,1,4|
1,2,8.5|
2,0,7.9|
2,1,2.1|
2,2,9|
];
constraint_x5_x4=[
0,0,4.8|
0,1,8.9|
0,2,8.9|
1,0,6.6|
1,1,3.8|
1,2,4|
2,0,4.4|
2,1,3.3|
2,2,6.9|
];
constraint_x6_x2=[
0,0,3.7|
0,1,4.2|
0,2,9.9|
1,0,4.3|
1,1,8.6|
1,2,2.1|
2,0,3.8|
2,1,5.8|
2,2,8.5|
];
constraint_x6_x3=[
0,0,3.3|
0,1,10|
0,2,2.2|
1,0,0.2|
1,1,8.5|
1,2,9.1|
2,0,6.2|
2,1,8.5|
2,2,5.3|
];
constraint_x6_x4=[
0,0,5.4|
0,1,0.75|
0,2,1.1|
1,0,2.3|
1,1,4.1|
1,2,1.2|
2,0,2.8|
2,1,9.1|
2,2,1.7|
];
constraint_x6_x5=[
0,0,8.3|
0,1,9.1|
0,2,3.8|
1,0,9.5|
1,1,9.7|
1,2,2.9|
2,0,0.52|
2,1,8.7|
2,2,9.3|
];
constraint_x7_x1=[
0,0,9.8|
0,1,0.57|
0,2,2.9|
1,0,8.7|
1,1,6.7|
1,2,9.1|
2,0,8.2|
2,1,6.2|
2,2,9.6|
];
constraint_x7_x3=[
0,0,5.6|
0,1,0.73|
0,2,5|
1,0,2.6|
1,1,7.3|
1,2,7.3|
2,0,2.5|
2,1,5.6|
2,2,5.6|
];
constraint_x7_x4=[
0,0,6.9|
0,1,2|
0,2,1.8|
1,0,3.1|
1,1,1.1|
1,2,0.33|
2,0,6.5|
2,1,2.8|
2,2,3.2|
];
constraint_x7_x6=[
0,0,2|
0,1,6.6|
0,2,7.3|
1,0,1.8|
1,1,6.4|
1,2,4.3|
2,0,5.3|
2,1,8.2|
2,2,7.6|
];
constraint_x8_x1=[
0,0,7.7|
0,1,1.7|
0,2,7.2|
1,0,9.5|
1,1,2.6|
1,2,9.7|
2,0,2.8|
2,1,9.8|
2,2,5.2|
];
constraint_x8_x3=[
0,0,1.3|
0,1,1.2|
0,2,5.2|
1,0,2.4|
1,1,3.9|
1,2,5.7|
2,0,7|
2,1,7.5|
2,2,9.5|
];
constraint_x8_x4=[
0,0,3.8|
0,1,6.2|
0,2,9.8|
1,0,2.2|
1,1,2.7|
1,2,1.3|
2,0,2.2|
2,1,8.1|
2,2,6.6|
];
constraint_x8_x7=[
0,0,7.6|
0,1,7.1|
0,2,4.7|
1,0,10|
1,1,9.9|
1,2,3.7|
2,0,9.7|
2,1,0.092|
2,2,3.9|
];
constraint_x9_x1=[
0,0,0.31|
0,1,4.3|
0,2,5.7|
1,0,3|
1,1,0.11|
1,2,4.2|
2,0,6.1|
2,1,8.2|
2,2,0.86|
];
constraint_x9_x4=[
0,0,9.1|
0,1,3.6|
0,2,2.9|
1,0,7.5|
1,1,7.2|
1,2,4.5|
2,0,0.76|
2,1,4|
2,2,7.4|
];
constraint_x9_x5=[
0,0,8.5|
0,1,2|
0,2,1.6|
1,0,0.63|
1,1,3.2|
1,2,3.1|
2,0,9.7|
2,1,5.2|
2,2,3.7|
];
constraint_x10_x3=[
0,0,3.8|
0,1,6.9|
0,2,7.2|
1,0,6.1|
1,1,1.4|
1,2,2.4|
2,0,7.1|
2,1,5.5|
2,2,6.2|
];
constraint_x10_x4=[
0,0,6.5|
0,1,5.5|
0,2,6.4|
1,0,2.7|
1,1,4.1|
1,2,9.9|
2,0,2.6|
2,1,7|
2,2,7.5|
];
constraint_x10_x7=[
0,0,5.2|
0,1,7.9|
0,2,8.6|
1,0,5.3|
1,1,0.76|
1,2,2|
2,0,3.6|
2,1,0.064|
2,2,4.4|
];
constraint_x10_x8=[
0,0,7.4|
0,1,1|
0,2,2.3|
1,0,0.56|
1,1,7.3|
1,2,7.6|
2,0,1.8|
2,1,8.4|
2,2,8.7|
];
constraint_x11_x5=[
0,0,2.1|
0,1,1.3|
0,2,4.4|
1,0,4.5|
1,1,8.6|
1,2,1.8|
2,0,6.6|
2,1,2.2|
2,2,2|
];
constraint_x11_x7=[
0,0,1.7|
0,1,9.9|
0,2,4.8|
1,0,0.59|
1,1,6.4|
1,2,0.52|
2,0,4|
2,1,4|
2,2,3.9|
];
constraint_x12_x1=[
0,0,2|
0,1,4.1|
0,2,2.8|
1,0,2.9|
1,1,9.7|
1,2,8.5|
2,0,2.5|
2,1,1.1|
2,2,3|
];
constraint_x12_x4=[
0,0,5.9|
0,1,3.7|
0,2,7.9|
1,0,9.7|
1,1,3.8|
1,2,4.2|
2,0,2.5|
2,1,2.6|
2,2,2.1|
];
constraint_x12_x8=[
0,0,3.6|
0,1,8.5|
0,2,8.9|
1,0,7.3|
1,1,6.2|
1,2,8|
2,0,5.1|
2,1,8.3|
2,2,0.79|
];
constraint_x12_x9=[
0,0,0.015|
0,1,5|
0,2,6.5|
1,0,8.9|
1,1,5.3|
1,2,8.3|
2,0,6.6|
2,1,4.9|
2,2,7.3|
];
constraint_x12_x10=[
0,0,7.4|
0,1,5.5|
0,2,8|
1,0,7.1|
1,1,8.3|
1,2,0.33|
2,0,7.9|
2,1,5.7|
2,2,2.1|
];
constraint_x12_x11=[
0,0,4.7|
0,1,4.4|
0,2,5|
1,0,1.1|
1,1,8.2|
1,2,7.7|
2,0,1.7|
2,1,8.1|
2,2,8.8|
];
constraint_x1_y1=[
0,0,7.2|
0,1,8.8|
0,2,6.1|
1,0,1.2|
1,1,1.2|
1,2,7.6|
2,0,9.5|
2,1,1.5|
2,2,4.5|
];
constraint_x2_y2=[
0,0,8.1|
0,1,9.1|
0,2,5|
1,0,1.7|
1,1,2.2|
1,2,3.9|
2,0,7.1|
2,1,8.3|
2,2,3.6|
];
constraint_x3_y3=[
0,0,9.5|
0,1,8.3|
0,2,2.9|
1,0,5.3|
1,1,8.5|
1,2,3.6|
2,0,9.2|
2,1,8.9|
2,2,4.3|
];
constraint_x4_y4=[
0,0,1.4|
0,1,3.6|
0,2,8.8|
1,0,0.27|
1,1,0.52|
1,2,3.7|
2,0,8.1|
2,1,7|
2,2,4.1|
];
constraint_x5_y5=[
0,0,3.1|
0,1,0.94|
0,2,4.7|
1,0,9.8|
1,1,3.7|
1,2,6.7|
2,0,0.33|
2,1,4.9|
2,2,6.8|
];
constraint_x6_y6=[
0,0,9.6|
0,1,4.3|
0,2,4.7|
1,0,7.4|
1,1,0.86|
1,2,2.2|
2,0,4.6|
2,1,3.3|
2,2,5.1|
];
constraint_x7_y7=[
0,0,2.7|
0,1,7.8|
0,2,1.5|
1,0,7.7|
1,1,8.6|
1,2,8.2|
2,0,9.5|
2,1,0.25|
2,2,4.5|
];
constraint_x8_y8=[
0,0,1.9|
0,1,9.9|
0,2,4.5|
1,0,8.2|
1,1,2.7|
1,2,6.8|
2,0,8.4|
2,1,6.6|
2,2,3.5|
];
constraint_x9_y9=[
0,0,0.51|
0,1,0.98|
0,2,6.9|
1,0,5.5|
1,1,8.9|
1,2,4|
2,0,9.6|
2,1,9.5|
2,2,8.9|
];
constraint_x10_y10=[
0,0,3.6|
0,1,4.2|
0,2,6.5|
1,0,2.4|
1,1,9.7|
1,2,3.3|
2,0,2.6|
2,1,9.1|
2,2,4.7|
];
constraint_x11_y11=[
0,0,6.2|
0,1,3.2|
0,2,1.8|
1,0,6.2|
1,1,0.4|
1,2,0.062|
2,0,5.7|
2,1,4|
2,2,2.4|
];
constraint_x12_y12=[
0,0,10|
0,1,8.4|
0,2,0.86|
1,0,9.2|
1,1,10|
1,2,6.3|
2,0,8.9|
2,1,4.6|
2,2,1.2|
];
initial_distribution_y1=[0.36,0.61,0.032];
initial_distribution_y2=[0.21,0.34,0.45];
initial_distribution_y3=[0.36,0.54,0.099];
initial_distribution_y4=[0.36,0.31,0.33];
initial_distribution_y5=[0.049,0.25,0.71];
initial_distribution_y6=[0.1,0.7,0.2];
initial_distribution_y7=[0.22,0.42,0.36];
initial_distribution_y8=[0.29,0.17,0.54];
initial_distribution_y9=[0.54,0.17,0.29];
initial_distribution_y10=[0.47,0.017,0.51];
initial_distribution_y11=[0.32,0.24,0.45];
initial_distribution_y12=[0.63,0.24,0.13];
transition_y1=[
0.2,0.61,0.19|
0.53,0.3,0.17|
0.51,0.16,0.33|
];
transition_y2=[
0.02,0.6,0.38|
0.37,0.45,0.17|
0.45,0.34,0.22|
];
transition_y3=[
0.14,0.62,0.23|
0.35,0.31,0.34|
0.22,0.43,0.35|
];
transition_y4=[
0.1,0.5,0.4|
0.14,0.43,0.43|
0.31,0.37,0.32|
];
transition_y5=[
0.31,0.3,0.39|
0.02,0.52,0.46|
0.42,0.56,0.021|
];
transition_y6=[
0.31,0.54,0.15|
0.34,0.34,0.33|
0.14,0.41,0.46|
];
transition_y7=[
0.42,0.22,0.36|
0.32,0.64,0.042|
0.36,0.42,0.22|
];
transition_y8=[
0.28,0.042,0.68|
0.58,0.023,0.4|
0.6,0.17,0.23|
];
transition_y9=[
0.42,0.081,0.5|
0.23,0.27,0.5|
0.13,0.34,0.53|
];
transition_y10=[
0.62,0.19,0.19|
0.32,0.48,0.2|
0.14,0.49,0.37|
];
transition_y11=[
0.26,0.44,0.29|
0.21,0.41,0.38|
0.37,0.43,0.2|
];
transition_y12=[
0.33,0.44,0.23|
0.074,0.36,0.57|
0.13,0.48,0.38|
];
